Reading model...
...model read.
creating competitive generators file...
...competitive generators recorded.
Loading data...
.. real-time data read.
Compiling instance...
...instance created.
Creating Offer Mitigation (model will solve as dispatch if TRUE)...
NOTE: storage offers will not be mitigated
...storage offer mitigation file created
Converting model to MPEC...
...converted
NOTE: initial MIP solve with only storage competitive to get feasible solution
Solving...

Welcome to IBM(R) ILOG(R) CPLEX(R) Interactive Optimizer 12.9.0.0
  with Simplex, Mixed Integer & Barrier Optimizers
5725-A06 5725-A29 5724-Y48 5724-Y49 5724-Y54 5724-Y55 5655-Y21
Copyright IBM Corp. 1988, 2019.  All Rights Reserved.

Type 'help' for a list of available commands.
Type 'help' followed by a command name for more
information on commands.

CPLEX> Logfile 'cplex.log' closed.
Logfile 'C:\Users\llavin\Desktop\test715\logs\tmp4wm4stc6.cplex.log' open.
CPLEX> New value for parallel optimization mode: -1
CPLEX> New value for mixed integer optimality gap tolerance: 0.01
CPLEX> New value for deterministic time limit in ticks: 100000
CPLEX> Problem 'C:\Users\llavin\Desktop\test715\logs\tmpegrqbubi.pyomo.lp' read.
Read time = 0.53 sec. (27.36 ticks)
CPLEX> Problem name         : C:\Users\llavin\Desktop\test715\logs\tmpegrqbubi.pyomo.lp
Objective sense      : Maximize
Variables            :  106816  [Nneg: 1,  Box: 43669,  Free: 8832,
                                 Binary: 54314]
Objective nonzeros   :   17473
Linear constraints   :  244875  [Less: 82143,  Greater: 117460,  Equal: 45272]
  Nonzeros           :  576885
  RHS nonzeros       :  133723

Variables            : Min LB: -5000.000        Max UB: 1000000.       
Objective nonzeros   : Min   : 0.008333333      Max   : 722.0000       
Linear constraints   :
  Nonzeros           : Min   : 0.008333333      Max   : 1000000.       
  RHS nonzeros       : Min   : 0.008333333      Max   : 1000000.       
CPLEX> CPXPARAM_Parallel                                -1
CPXPARAM_DetTimeLimit                            100000
CPXPARAM_MIP_Tolerances_MIPGap                   0.01
Tried aggregator 2 times.
MIP Presolve eliminated 177674 rows and 40588 columns.
MIP Presolve added 6192 rows and 0 columns.
MIP Presolve modified 48484 coefficients.
Aggregator did 25597 substitutions.
Reduced MIP has 47796 rows, 39111 columns, and 142637 nonzeros.
Reduced MIP has 15398 binaries, 0 generals, 0 SOSs, and 0 indicators.
Presolve time = 0.53 sec. (293.62 ticks)
Probing fixed 881 vars, tightened 14853 bounds.
Probing time = 0.39 sec. (16.86 ticks)
Tried aggregator 2 times.
MIP Presolve eliminated 1956 rows and 1764 columns.
MIP Presolve modified 5521 coefficients.
Aggregator did 144 substitutions.
Reduced MIP has 45696 rows, 37203 columns, and 136520 nonzeros.
Reduced MIP has 14517 binaries, 0 generals, 0 SOSs, and 0 indicators.
Presolve time = 0.23 sec. (144.97 ticks)
Probing fixed 0 vars, tightened 486 bounds.
Probing time = 0.61 sec. (21.69 ticks)
Clique table members: 105513.
MIP emphasis: balance optimality and feasibility.
MIP search method: dynamic search.
Parallel mode: opportunistic, using up to 32 threads.
Root relaxation solution time = 1.05 sec. (532.89 ticks)

        Nodes                                         Cuts/
   Node  Left     Objective  IInf  Best Integer    Best Bound    ItCnt     Gap

      0     0     1537.5907  3042                   1537.5907      112         
      0     0     1537.5848    24                    Cuts: 49      137         
      0     0     1537.5819    24                    Cuts: 19      145         
      0     0     1537.5760    24                    Cuts: 13      149         
      0     2     1537.5760    24                   Covers: 3      149         
Elapsed time = 11.11 sec. (5934.26 ticks, tree = 0.02 MB, solutions = 0)
*   171    67      integral     0     1534.6121     1537.1688      434    0.17%
    177    32     1537.1095    17     1534.6121     1537.1688      281    0.17%
*   331   113      integral     0     1534.6649     1537.1688      646    0.16%
*   378   141      integral     0     1534.9179     1537.1490      765    0.15%
*   433   152      integral     0     1535.0122     1537.1490      841    0.14%
    437   144     1534.5377     2     1535.0122     1537.1490      770    0.14%

Cover cuts applied:  4
Implied bound cuts applied:  1
Flow cuts applied:  30
Mixed integer rounding cuts applied:  3

Root node processing (before b&c):
  Real time             =    8.09 sec. (5883.34 ticks)
Parallel b&c, 32 threads:
  Real time             =    4.58 sec. (602.31 ticks)
  Sync time (average)   =    1.13 sec.
  Wait time (average)   =    0.00 sec.
                          ------------
Total (root+branch&cut) =   12.67 sec. (6485.65 ticks)

Solution pool: 11 solutions saved.

MIP - Integer optimal, tolerance (0.01/1e-06):  Objective =  1.5350122328e+03
Current MIP best bound =  1.5371489517e+03 (gap = 2.13672, 0.14%)
Solution time =   12.70 sec.  Iterations = 1935  Nodes = 441 (307)
Deterministic time = 6485.95 ticks  (510.58 ticks/sec)

CPLEX> Incumbent solution written to file 'C:\Users\llavin\Desktop\test715\logs\tmpoktvp_q0.cplex.sol'.
CPLEX> NOTE: no warmstart specified for MIP iteration, default behavior is true
NOTE: resolving with all competitive generators using storage-only solution to warmstart
Solving...

Welcome to IBM(R) ILOG(R) CPLEX(R) Interactive Optimizer 12.9.0.0
  with Simplex, Mixed Integer & Barrier Optimizers
5725-A06 5725-A29 5724-Y48 5724-Y49 5724-Y54 5724-Y55 5655-Y21
Copyright IBM Corp. 1988, 2019.  All Rights Reserved.

Type 'help' for a list of available commands.
Type 'help' followed by a command name for more
information on commands.

CPLEX> Logfile 'cplex.log' closed.
Logfile 'C:\Users\llavin\Desktop\test715\logs\tmpx82i7lgc.cplex.log' open.
CPLEX> New value for parallel optimization mode: -1
CPLEX> New value for mixed integer optimality gap tolerance: 0.01
CPLEX> New value for deterministic time limit in ticks: 100000
CPLEX> Problem 'C:\Users\llavin\Desktop\test715\logs\tmpqliu5kws.pyomo.lp' read.
Read time = 0.50 sec. (27.41 ticks)
CPLEX> MIP start file 'C:\Users\llavin\Desktop\test715\logs\tmpjb60ylrv.cplex.mst' read.
CPLEX> Problem name         : C:\Users\llavin\Desktop\test715\logs\tmpqliu5kws.pyomo.lp
Objective sense      : Maximize
Variables            :  108256  [Nneg: 1,  Box: 45109,  Free: 8832,
                                 Binary: 54314]
Objective nonzeros   :   18865
Linear constraints   :  244875  [Less: 82143,  Greater: 117460,  Equal: 45272]
  Nonzeros           :  576885
  RHS nonzeros       :  133723

Variables            : Min LB: -5000.000        Max UB: 1000000.       
Objective nonzeros   : Min   : 0.008333333      Max   : 722.0000       
Linear constraints   :
  Nonzeros           : Min   : 0.008333333      Max   : 1000000.       
  RHS nonzeros       : Min   : 0.008333333      Max   : 1000000.       
CPLEX> CPXPARAM_Parallel                                -1
CPXPARAM_DetTimeLimit                            100000
CPXPARAM_MIP_Tolerances_MIPGap                   0.01
Warning:  No solution found from 1 MIP starts.
Retaining values of one MIP start for possible repair.
Tried aggregator 2 times.
MIP Presolve eliminated 177674 rows and 42028 columns.
MIP Presolve added 6192 rows and 0 columns.
MIP Presolve modified 48484 coefficients.
Aggregator did 25597 substitutions.
Reduced MIP has 47796 rows, 39111 columns, and 142637 nonzeros.
Reduced MIP has 15398 binaries, 0 generals, 0 SOSs, and 0 indicators.
Presolve time = 0.52 sec. (294.23 ticks)
Probing fixed 881 vars, tightened 14853 bounds.
Probing time = 0.38 sec. (16.86 ticks)
Tried aggregator 2 times.
MIP Presolve eliminated 1956 rows and 1764 columns.
MIP Presolve modified 5521 coefficients.
Aggregator did 144 substitutions.
Reduced MIP has 45696 rows, 37203 columns, and 136520 nonzeros.
Reduced MIP has 14517 binaries, 0 generals, 0 SOSs, and 0 indicators.
Presolve time = 0.22 sec. (144.96 ticks)
Probing fixed 0 vars, tightened 486 bounds.
Probing time = 0.61 sec. (21.65 ticks)
Clique table members: 105513.
MIP emphasis: balance optimality and feasibility.
MIP search method: dynamic search.
Parallel mode: opportunistic, using up to 32 threads.
Root relaxation solution time = 1.14 sec. (791.72 ticks)

        Nodes                                         Cuts/
   Node  Left     Objective  IInf  Best Integer    Best Bound    ItCnt     Gap

      0     0    31363.1670   647                  31363.1670      169         
      0     0    31339.5989   232               Flowcuts: 255      427         
      0     0    31338.5046   245                   Cuts: 122      522         
      0     0    31338.1802   243                    Cuts: 45      555         
      0     0    31338.0666   249                    Cuts: 30      575         
*     0+    0                        30969.8815    31338.0666             1.19%
Repair heuristic found nothing.
      0     2    31338.0666   247    30969.8815       Cuts: 9      575    1.19%
Elapsed time = 14.67 sec. (8312.55 ticks, tree = 0.02 MB, solutions = 1)
    278    86    31259.4231   227    30969.8815    31336.9295     2100    1.19%
    553   126    31207.3922   203    30969.8815    31336.9295     2575    1.19%
    806   675    31254.1828   207    30969.8815    31336.9295     8582    1.19%
   1162   555    31320.8983   186    30969.8815    31336.9295     7284    1.19%
   1551   686    31259.7363   188    30969.8815    31336.9295     8505    1.19%
   1924  1231    31260.6479   232    30969.8815    31336.9295    12296    1.19%
   2210   919    31242.2516   201    30969.8815    31336.9295    10062    1.19%
   2523  1370    31129.7833   132    30969.8815    31336.9295    13145    1.19%
   2791  1655    31207.5466   180    30969.8815    31336.9295    16779    1.19%
   3099  3076    31165.3075   108    30969.8815    31336.9295    38236    1.19%
Elapsed time = 29.44 sec. (11436.64 ticks, tree = 44.87 MB, solutions = 1)
   3675  3152    31236.6107   233    30981.6312    31336.9295    39127    1.15%
   5073  3369    31085.6255    43    30981.6312    31336.9295    40807    1.15%
*  5668  3426      integral     0    31055.1777    31336.9295    41652    0.91%
   5678  3532    31046.6030    57    31055.1777    31336.9295    42324    0.91%

Implied bound cuts applied:  1
Flow cuts applied:  277
Mixed integer rounding cuts applied:  31

Root node processing (before b&c):
  Real time             =   11.56 sec. (8244.25 ticks)
Parallel b&c, 32 threads:
  Real time             =   27.86 sec. (6290.07 ticks)
  Sync time (average)   =    0.81 sec.
  Wait time (average)   =    0.00 sec.
                          ------------
Total (root+branch&cut) =   39.42 sec. (14534.32 ticks)

Solution pool: 3 solutions saved.

MIP - Integer optimal, tolerance (0.01/1e-06):  Objective =  3.1055177652e+04
Current MIP best bound =  3.1336929537e+04 (gap = 281.752, 0.91%)
Solution time =   39.45 sec.  Iterations = 56174  Nodes = 5680 (5384)
Deterministic time = 14534.63 ticks  (368.40 ticks/sec)

CPLEX> Incumbent solution written to file 'C:\Users\llavin\Desktop\test715\logs\tmphfw19zcf.cplex.sol'.
CPLEX> Exporting results... 
